c n orig vars 122
p cnf 204 329
-176 0
194 -190 0
194 -141 0
-194 190 141 0
193 -51 0
193 -44 0
-193 51 44 0
126 -203 0
126 -22 0
-126 203 22 0
127 -201 0
127 -23 0
-127 201 23 0
129 -61 0
129 -114 0
129 -181 0
129 -184 0
129 -183 0
129 -186 0
-129 61 114 181 184 183 186 0
130 -51 0
130 -45 0
130 -195 0
130 -189 0
130 -98 0
-130 51 45 195 189 98 0
131 -61 0
131 -113 0
131 -177 0
131 -180 0
131 -179 0
131 -182 0
-131 61 113 177 180 179 182 0
132 -117 0
132 -118 0
132 -159 0
132 -129 0
-132 117 118 159 129 0
133 -21 0
133 -127 0
-133 21 127 0
134 -2 0
134 -1 0
134 -163 0
134 -131 0
-134 2 1 163 131 0
135 -101 0
135 -126 0
-135 101 126 0
136 -10 0
136 -9 0
136 -133 0
-136 10 9 133 0
198 -193 0
198 -164 0
198 -93 0
198 -96 0
198 -143 0
-198 193 164 93 96 143 0
-138 130 0
-138 192 0
138 -130 -192 0
191 -44 0
191 -99 0
191 -195 0
191 -171 0
191 -98 0
-191 44 99 195 171 98 0
140 -61 0
140 -115 0
140 -177 0
140 -180 0
140 -185 0
140 -182 0
-140 61 115 177 180 185 182 0
141 -117 0
141 -120 0
141 -204 0
141 -178 0
-141 117 120 204 178 0
142 -16 0
142 -15 0
142 -18 0
142 -17 0
142 -20 0
-142 16 15 18 17 20 0
143 -144 0
143 -121 0
143 -122 0
-143 144 121 122 0
139 -29 0
139 -26 0
139 -27 0
139 -150 0
-139 29 26 27 150 0
145 -30 0
145 -31 0
145 -28 0
145 -153 0
-145 30 31 28 153 0
-146 109 0
-146 108 0
-146 107 0
146 -109 -108 -107 0
-147 106 0
-147 105 0
147 -106 -105 0
-148 104 0
-148 108 0
-148 103 0
148 -104 -108 -103 0
-149 112 0
-149 108 0
-149 111 0
149 -112 -108 -111 0
-169 85 0
-169 86 0
169 -85 -86 0
151 -64 0
151 -199 0
151 -39 0
-151 64 199 39 0
152 -69 0
152 -70 0
152 -71 0
-152 69 70 71 0
-153 72 0
-153 108 0
153 -72 -108 0
154 -42 0
154 -196 0
154 -41 0
-154 42 196 41 0
155 -40 0
155 -35 0
155 -34 0
155 -153 0
-155 40 35 34 153 0
156 -36 0
156 -197 0
156 -43 0
-156 36 197 43 0
157 -38 0
157 -173 0
157 -37 0
-157 38 173 37 0
158 -148 0
158 -147 0
-158 148 147 0
159 -61 0
159 -158 0
159 -168 0
159 -160 0
-159 61 158 168 160 0
-160 165 0
-160 89 0
160 -165 -89 0
161 -149 0
161 -169 0
-161 149 169 0
162 -146 0
162 -147 0
-162 146 147 0
163 -61 0
163 -162 0
163 -161 0
163 -160 0
-163 61 162 161 160 0
164 -60 0
164 -62 0
-164 60 62 0
123 -2 0
123 -119 0
123 -167 0
123 -140 0
-123 2 119 167 140 0
166 -190 0
166 -132 0
-166 190 132 0
167 -61 0
167 -162 0
167 -161 0
167 -160 0
-167 61 162 161 160 0
168 -124 0
168 -169 0
-168 124 169 0
-144 174 0
-144 110 0
144 -174 -110 0
-150 63 0
-150 108 0
150 -63 -108 0
170 -138 0
170 -172 0
-170 138 172 0
200 -73 0
200 -65 0
-200 73 65 0
171 -202 0
171 -123 0
-171 202 123 0
-172 191 0
-172 188 0
172 -191 -188 0
-124 83 0
-124 108 0
-124 84 0
124 -83 -108 -84 0
174 -195 0
174 -82 0
-174 195 82 0
-199 59 0
-199 58 0
199 -59 -58 0
-176 170 0
-176 198 0
176 -170 -198 0
177 -151 0
177 -156 0
-177 151 156 0
178 -61 0
178 -116 0
178 -181 0
178 -184 0
178 -142 0
178 -186 0
-178 61 116 181 184 142 186 0
179 -33 0
179 -19 0
179 -48 0
179 -49 0
179 -46 0
-179 33 19 48 49 46 0
180 -137 0
180 -175 0
-180 137 175 0
181 -157 0
181 -154 0
-181 157 154 0
182 -155 0
182 -139 0
-182 155 139 0
183 -16 0
183 -47 0
183 -52 0
183 -53 0
183 -50 0
-183 16 47 52 53 50 0
184 -200 0
184 -152 0
-184 200 152 0
185 -33 0
185 -12 0
185 -11 0
185 -14 0
185 -13 0
-185 33 12 11 14 13 0
186 -145 0
186 -125 0
-186 145 125 0
192 -97 0
192 -136 0
192 -166 0
192 -100 0
-192 97 136 166 100 0
188 -94 0
188 -136 0
188 -194 0
188 -100 0
-188 94 136 194 100 0
189 -202 0
189 -134 0
-189 202 134 0
190 -92 0
190 -80 0
190 -88 0
190 -79 0
-190 92 80 88 79 0
202 -90 0
202 -87 0
202 -88 0
202 -91 0
-202 90 87 88 91 0
165 -95 0
165 -102 0
-165 95 102 0
137 -77 0
137 -74 0
-137 77 74 0
125 -24 0
125 -25 0
125 -32 0
125 -150 0
-125 24 25 32 150 0
195 -8 0
195 -7 0
195 -135 0
-195 8 7 135 0
-196 6 0
-196 5 0
196 -6 -5 0
-197 4 0
-197 3 0
197 -4 -3 0
-173 55 0
-173 54 0
173 -55 -54 0
175 -66 0
175 -67 0
175 -68 0
-175 66 67 68 0
-187 75 0
-187 78 0
187 -75 -78 0
201 -187 0
201 -56 0
-201 187 56 0
-128 81 0
-128 76 0
128 -81 -76 0
203 -128 0
203 -57 0
-203 128 57 0
204 -61 0
204 -158 0
204 -168 0
204 -160 0
-204 61 158 168 160 0
